NAME : ley2323
COMMENT : Bonn VLSI data set with 2323 points
COMMENT : Uni Bonn, Research Institute for Discrete Math
COMMENT : Contributed by Andre Rohe
TYPE : TSP
DIMENSION : 2323
EDGE_WEIGHT_TYPE : EUC_2D
NODE_COORD_SECTION
1 0 386
2 0 387
3 0 388
4 0 389
5 0 390
6 0 391
7 0 392
8 0 393
9 0 479
10 0 481
11 0 678
12 0 727
13 0 737
14 0 741
15 0 759
16 2 10
17 2 100
18 2 101
19 2 103
20 2 104
21 2 107
22 2 108
23 2 11
24 2 112
25 2 113
26 2 116
27 2 117
28 2 118
29 2 123
30 2 125
31 2 128
32 2 129
33 2 133
34 2 134
35 2 137
36 2 138
37 2 139
38 2 14
39 2 144
40 2 146
41 2 149
42 2 15
43 2 150
44 2 154
45 2 155
46 2 158
47 2 159
48 2 160
49 2 165
50 2 167
51 2 170
52 2 171
53 2 175
54 2 176
55 2 179
56 2 180
57 2 181
58 2 186
59 2 188
60 2 19
61 2 190
62 2 191
63 2 193
64 2 194
65 2 20
66 2 201
67 2 202
68 2 206
69 2 207
70 2 210
71 2 211
72 2 212
73 2 217
74 2 219
75 2 23
76 2 24
77 2 242
78 2 243
79 2 25
80 2 253
81 2 254
82 2 256
83 2 268
84 2 269
85 2 270
86 2 271
87 2 295
88 2 296
89 2 30
90 2 300
91 2 301
92 2 304
93 2 305
94 2 306
95 2 311
96 2 313
97 2 316
98 2 317
99 2 32
100 2 321
101 2 322
102 2 325
103 2 326
104 2 327
105 2 332
106 2 334
107 2 337
108 2 338
109 2 342
110 2 343
111 2 346
112 2 347
113 2 348
114 2 35
115 2 353
116 2 355
117 2 36
118 2 363
119 2 379
120 2 385
121 2 387
122 2 390
123 2 392
124 2 395
125 2 397
126 2 40
127 2 400
128 2 401
129 2 402
130 2 41
131 2 439
132 2 44
133 2 441
134 2 448
135 2 45
136 2 46
137 2 467
138 2 484
139 2 485
140 2 488
141 2 489
142 2 493
143 2 494
144 2 498
145 2 499
146 2 502
147 2 503
148 2 504
149 2 509
150 2 51
151 2 511
152 2 514
153 2 515
154 2 519
155 2 520
156 2 523
157 2 524
158 2 525
159 2 53
160 2 530
161 2 532
162 2 535
163 2 536
164 2 540
165 2 541
166 2 544
167 2 545
168 2 546
169 2 551
170 2 553
171 2 556
172 2 557
173 2 56
174 2 561
175 2 562
176 2 565
177 2 566
178 2 567
179 2 57
180 2 572
181 2 574
182 2 576
183 2 577
184 2 580
185 2 581
186 2 591
187 2 593
188 2 608
189 2 609
190 2 61
191 2 62
192 2 623
193 2 624
194 2 648
195 2 649
196 2 65
197 2 655
198 2 656
199 2 66
200 2 662
201 2 663
202 2 67
203 2 677
204 2 678
205 2 692
206 2 693
207 2 697
208 2 700
209 2 701
210 2 706
211 2 707
212 2 711
213 2 712
214 2 715
215 2 716
216 2 717
217 2 72
218 2 722
219 2 724
220 2 726
221 2 727
222 2 734
223 2 735
224 2 74
225 2 743
226 2 759
227 2 77
228 2 78
229 2 82
230 2 83
231 2 86
232 2 87
233 2 88
234 2 93
235 2 95
236 2 97
237 2 98
238 3 110
239 3 131
240 3 152
241 3 17
242 3 173
243 3 204
244 3 257
245 3 298
246 3 319
247 3 340
248 3 38
249 3 496
250 3 517
251 3 538
252 3 559
253 3 59
254 3 610
255 3 625
256 3 679
257 3 694
258 3 709
259 3 80
260 5 198
261 5 358
262 5 360
263 5 410
264 5 414
265 5 418
266 5 423
267 5 429
268 5 433
269 5 444
270 5 586
271 5 697
272 5 699
273 5 732
274 5 738
275 5 740
276 5 764
277 5 767
278 5 771
279 5 8
280 8 415
281 9 287
282 9 399
283 9 426
284 9 429
285 9 433
286 10 427
287 10 431
288 10 446
289 10 465
290 10 696
291 11 196
292 11 221
293 11 287
294 11 357
295 11 369
296 11 403
297 11 408
298 11 435
299 11 443
300 11 446
301 11 465
302 11 587
303 11 597
304 11 612
305 11 627
306 11 666
307 11 681
308 11 696
309 11 737
310 11 749
311 11 762
312 11 765
313 12 411
314 12 5
315 12 583
316 12 729
317 15 358
318 15 360
319 15 414
320 15 418
321 15 423
322 15 428
323 15 432
324 15 444
325 15 586
326 15 697
327 15 699
328 15 732
329 15 738
330 15 740
331 15 8
332 17 101
333 17 104
334 17 107
335 17 11
336 17 113
337 17 116
338 17 123
339 17 125
340 17 128
341 17 134
342 17 137
343 17 14
344 17 144
345 17 146
346 17 149
347 17 155
348 17 158
349 17 165
350 17 167
351 17 170
352 17 176
353 17 179
354 17 186
355 17 188
356 17 191
357 17 194
358 17 20
359 17 201
360 17 207
361 17 210
362 17 217
363 17 219
364 17 23
365 17 242
366 17 268
367 17 270
368 17 295
369 17 30
370 17 301
371 17 304
372 17 311
373 17 313
374 17 316
375 17 32
376 17 322
377 17 325
378 17 332
379 17 334
380 17 337
381 17 343
382 17 346
383 17 35
384 17 353
385 17 355
386 17 363
387 17 385
388 17 387
389 17 390
390 17 392
391 17 395
392 17 397
393 17 41
394 17 44
395 17 485
396 17 489
397 17 493
398 17 499
399 17 502
400 17 509
401 17 51
402 17 511
403 17 514
404 17 520
405 17 523
406 17 53
407 17 530
408 17 532
409 17 535
410 17 541
411 17 544
412 17 551
413 17 553
414 17 556
415 17 56
416 17 562
417 17 565
418 17 572
419 17 574
420 17 577
421 17 581
422 17 62
423 17 648
424 17 65
425 17 656
426 17 662
427 17 701
428 17 706
429 17 712
430 17 715
431 17 72
432 17 722
433 17 724
434 17 727
435 17 735
436 17 74
437 17 743
438 17 77
439 17 778
440 17 83
441 17 86
442 17 93
443 17 95
444 17 98
445 18 111
446 18 117
447 18 132
448 18 138
449 18 153
450 18 159
451 18 174
452 18 18
453 18 180
454 18 205
455 18 211
456 18 24
457 18 241
458 18 252
459 18 258
460 18 271
461 18 299
462 18 305
463 18 320
464 18 326
465 18 341
466 18 347
467 18 379
468 18 39
469 18 45
470 18 497
471 18 503
472 18 518
473 18 524
474 18 539
475 18 545
476 18 560
477 18 566
478 18 60
479 18 607
480 18 610
481 18 622
482 18 625
483 18 647
484 18 655
485 18 66
486 18 663
487 18 676
488 18 679
489 18 691
490 18 694
491 18 710
492 18 716
493 18 759
494 18 81
495 18 87
496 25 11
497 25 12
498 25 125
499 25 126
500 25 136
501 25 137
502 25 139
503 25 151
504 25 152
505 25 153
506 25 154
507 25 16
508 25 17
509 25 178
510 25 179
511 25 183
512 25 184
513 25 187
514 25 188
515 25 189
516 25 194
517 25 196
518 25 198
519 25 199
520 25 20
521 25 201
522 25 202
523 25 21
524 25 210
525 25 211
526 25 213
527 25 214
528 25 216
529 25 217
530 25 22
531 25 220
532 25 221
533 25 225
534 25 226
535 25 229
536 25 230
537 25 231
538 25 236
539 25 238
540 25 241
541 25 242
542 25 246
543 25 247
544 25 250
545 25 251
546 25 252
547 25 257
548 25 259
549 25 262
550 25 263
551 25 267
552 25 268
553 25 27
554 25 271
555 25 272
556 25 273
557 25 278
558 25 280
559 25 282
560 25 283
561 25 29
562 25 290
563 25 304
564 25 305
565 25 318
566 25 319
567 25 333
568 25 334
569 25 348
570 25 349
571 25 353
572 25 367
573 25 368
574 25 369
575 25 376
576 25 377
577 25 378
578 25 385
579 25 387
580 25 390
581 25 391
582 25 392
583 25 422
584 25 424
585 25 435
586 25 436
587 25 438
588 25 439
589 25 441
590 25 442
591 25 445
592 25 446
593 25 450
594 25 451
595 25 454
596 25 455
597 25 456
598 25 461
599 25 463
600 25 466
601 25 467
602 25 471
603 25 472
604 25 475
605 25 476
606 25 477
607 25 482
608 25 484
609 25 507
610 25 508
611 25 518
612 25 519
613 25 52
614 25 521
615 25 53
616 25 533
617 25 534
618 25 535
619 25 536
620 25 560
621 25 561
622 25 565
623 25 566
624 25 569
625 25 570
626 25 571
627 25 576
628 25 578
629 25 580
630 25 581
631 25 584
632 25 585
633 25 604
634 25 606
635 25 610
636 25 613
637 25 614
638 25 618
639 25 63
640 25 639
641 25 64
642 25 643
643 25 644
644 25 648
645 25 649
646 25 652
647 25 653
648 25 654
649 25 659
650 25 66
651 25 661
652 25 664
653 25 665
654 25 669
655 25 670
656 25 673
657 25 674
658 25 675
659 25 680
660 25 682
661 25 685
662 25 686
663 25 690
664 25 691
665 25 694
666 25 695
667 25 696
668 25 701
669 25 703
670 25 706
671 25 707
672 25 711
673 25 712
674 25 715
675 25 716
676 25 717
677 25 722
678 25 724
679 25 727
680 25 728
681 25 732
682 25 733
683 25 736
684 25 737
685 25 738
686 25 743
687 25 745
688 25 770
689 25 772
690 25 78
691 25 79
692 25 80
693 25 81
694 26 14
695 26 140
696 26 181
697 26 223
698 26 244
699 26 265
700 26 320
701 26 335
702 26 350
703 26 448
704 26 469
705 26 522
706 26 563
707 26 646
708 26 667
709 26 67
710 26 688
711 26 709
712 26 730
713 28 207
714 28 295
715 28 298
716 28 302
717 28 401
718 28 406
719 28 412
720 28 416
721 28 427
722 28 430
723 28 432
724 28 590
725 28 594
726 28 598
727 28 6
728 28 610
729 28 612
730 28 618
731 28 620
732 28 625
733 28 633
734 28 639
735 28 641
736 28 750
737 28 756
738 28 760
739 28 764
740 31 398
741 31 621
742 31 627
743 31 635
744 32 170
745 32 366
746 32 375
747 32 389
748 32 409
749 32 412
750 32 416
751 32 552
752 32 591
753 32 594
754 32 598
755 32 621
756 32 627
757 32 635
758 32 757
759 32 760
760 32 764
761 32 97
762 33 410
763 33 414
764 33 592
765 33 596
766 33 609
767 33 617
768 33 621
769 33 627
770 33 635
771 33 638
772 33 758
773 33 762
774 34 104
775 34 170
776 34 293
777 34 296
778 34 307
779 34 31
780 34 322
781 34 337
782 34 359
783 34 370
784 34 379
785 34 393
786 34 418
787 34 426
788 34 429
789 34 486
790 34 5
791 34 552
792 34 600
793 34 609
794 34 617
795 34 621
796 34 628
797 34 636
798 34 638
799 34 766
800 34 97
801 35 204
802 35 587
803 35 621
804 35 747
805 38 207
806 38 401
807 38 406
808 38 411
809 38 415
810 38 427
811 38 430
812 38 432
813 38 590
814 38 593
815 38 597
816 38 6
817 38 610
818 38 612
819 38 618
820 38 620
821 38 639
822 38 641
823 38 750
824 38 756
825 38 759
826 38 763
827 39 778
828 40 11
829 40 125
830 40 151
831 40 153
832 40 17
833 40 178
834 40 184
835 40 187
836 40 194
837 40 196
838 40 199
839 40 20
840 40 202
841 40 211
842 40 214
843 40 217
844 40 220
845 40 226
846 40 229
847 40 236
848 40 238
849 40 241
850 40 247
851 40 250
852 40 257
853 40 259
854 40 262
855 40 268
856 40 27
857 40 271
858 40 278
859 40 280
860 40 283
861 40 29
862 40 305
863 40 353
864 40 385
865 40 387
866 40 436
867 40 439
868 40 442
869 40 445
870 40 451
871 40 454
872 40 461
873 40 463
874 40 466
875 40 472
876 40 475
877 40 482
878 40 484
879 40 507
880 40 52
881 40 533
882 40 535
883 40 560
884 40 566
885 40 569
886 40 576
887 40 578
888 40 581
889 40 585
890 40 614
891 40 643
892 40 649
893 40 652
894 40 659
895 40 661
896 40 664
897 40 670
898 40 673
899 40 680
900 40 682
901 40 685
902 40 691
903 40 694
904 40 701
905 40 703
906 40 706
907 40 712
908 40 715
909 40 722
910 40 724
911 40 727
912 40 733
913 40 736
914 40 743
915 40 745
916 40 78
917 40 80
918 41 124
919 41 135
920 41 141
921 41 15
922 41 154
923 41 182
924 41 188
925 41 21
926 41 224
927 41 230
928 41 245
929 41 251
930 41 266
931 41 272
932 41 290
933 41 317
934 41 320
935 41 332
936 41 335
937 41 347
938 41 350
939 41 449
940 41 455
941 41 470
942 41 476
943 41 506
944 41 51
945 41 517
946 41 523
947 41 536
948 41 564
949 41 570
950 41 62
951 41 622
952 41 623
953 41 625
954 41 626
955 41 627
956 41 630
957 41 631
958 41 633
959 41 634
960 41 635
961 41 647
962 41 653
963 41 668
964 41 674
965 41 68
966 41 689
967 41 695
968 41 710
969 41 716
970 41 731
971 41 737
972 41 81
973 48 104
974 48 105
975 48 109
976 48 110
977 48 113
978 48 114
979 48 115
980 48 120
981 48 122
982 48 125
983 48 126
984 48 130
985 48 131
986 48 134
987 48 135
988 48 136
989 48 141
990 48 143
991 48 146
992 48 147
993 48 151
994 48 152
995 48 155
996 48 156
997 48 157
998 48 162
999 48 164
1000 48 169
1001 48 170
1002 48 173
1003 48 175
1004 48 176
1005 48 178
1006 48 179
1007 48 181
1008 48 182
1009 48 187
1010 48 188
1011 48 190
1012 48 191
1013 48 195
1014 48 196
1015 48 197
1016 48 199
1017 48 200
1018 48 202
1019 48 203
1020 48 204
1021 48 205
1022 48 207
1023 48 208
1024 48 21
1025 48 210
1026 48 211
1027 48 212
1028 48 213
1029 48 215
1030 48 216
1031 48 218
1032 48 219
1033 48 22
1034 48 220
1035 48 221
1036 48 223
1037 48 224
1038 48 225
1039 48 227
1040 48 244
1041 48 245
1042 48 259
1043 48 260
1044 48 287
1045 48 289
1046 48 302
1047 48 303
1048 48 317
1049 48 318
1050 48 332
1051 48 333
1052 48 347
1053 48 348
1054 48 362
1055 48 363
1056 48 366
1057 48 367
1058 48 369
1059 48 370
1060 48 376
1061 48 413
1062 48 414
1063 48 428
1064 48 429
1065 48 443
1066 48 444
1067 48 458
1068 48 459
1069 48 46
1070 48 47
1071 48 473
1072 48 474
1073 48 479
1074 48 480
1075 48 481
1076 48 483
1077 48 484
1078 48 486
1079 48 487
1080 48 488
1081 48 489
1082 48 491
1083 48 492
1084 48 494
1085 48 495
1086 48 496
1087 48 497
1088 48 499
1089 48 500
1090 48 502
1091 48 503
1092 48 504
1093 48 505
1094 48 507
1095 48 508
1096 48 509
1097 48 511
1098 48 528
1099 48 529
1100 48 53
1101 48 54
1102 48 543
1103 48 544
1104 48 578
1105 48 580
1106 48 584
1107 48 585
1108 48 588
1109 48 589
1110 48 594
1111 48 595
1112 48 598
1113 48 60
1114 48 600
1115 48 601
1116 48 605
1117 48 606
1118 48 61
1119 48 611
1120 48 612
1121 48 616
1122 48 617
1123 48 620
1124 48 621
1125 48 622
1126 48 627
1127 48 629
1128 48 632
1129 48 633
1130 48 637
1131 48 638
1132 48 641
1133 48 642
1134 48 643
1135 48 648
1136 48 650
1137 48 656
1138 48 657
1139 48 662
1140 48 663
1141 48 666
1142 48 668
1143 48 669
1144 48 673
1145 48 674
1146 48 701
1147 48 702
1148 48 712
1149 48 713
1150 48 715
1151 48 727
1152 48 728
1153 48 729
1154 48 730
1155 48 75
1156 48 753
1157 48 754
1158 48 76
1159 48 761
1160 48 83
1161 48 90
1162 49 107
1163 49 128
1164 49 149
1165 49 23
1166 49 246
1167 49 261
1168 49 304
1169 49 319
1170 49 334
1171 49 349
1172 49 364
1173 49 415
1174 49 430
1175 49 445
1176 49 460
1177 49 475
1178 49 530
1179 49 545
1180 49 614
1181 49 635
1182 49 716
1183 49 77
1184 51 102
1185 51 168
1186 51 185
1187 51 266
1188 51 271
1189 51 277
1190 51 281
1191 51 373
1192 51 380
1193 51 383
1194 51 387
1195 51 391
1196 51 395
1197 51 401
1198 51 549
1199 51 553
1200 51 557
1201 51 562
1202 51 568
1203 51 572
1204 51 593
1205 51 655
1206 51 661
1207 51 679
1208 51 766
1209 51 769
1210 51 773
1211 51 8
1212 51 80
1213 51 95
1214 51 98
1215 54 263
1216 54 554
1217 55 228
1218 55 274
1219 55 277
1220 55 281
1221 55 512
1222 55 565
1223 55 568
1224 55 572
1225 55 746
1226 56 275
1227 56 279
1228 56 566
1229 56 570
1230 57 10
1231 57 166
1232 57 184
1233 57 233
1234 57 248
1235 57 25
1236 57 283
1237 57 291
1238 57 306
1239 57 321
1240 57 336
1241 57 351
1242 57 372
1243 57 378
1244 57 381
1245 57 402
1246 57 417
1247 57 432
1248 57 447
1249 57 462
1250 57 517
1251 57 532
1252 57 547
1253 57 574
1254 57 591
1255 57 64
1256 57 659
1257 57 680
1258 57 746
1259 57 764
1260 57 767
1261 57 79
1262 57 93
1263 57 96
1264 58 388
1265 58 392
1266 58 5
1267 58 550
1268 58 652
1269 58 676
1270 61 185
1271 61 266
1272 61 271
1273 61 276
1274 61 280
1275 61 373
1276 61 391
1277 61 395
1278 61 401
1279 61 553
1280 61 557
1281 61 562
1282 61 567
1283 61 571
1284 61 655
1285 61 679
1286 61 8
1287 61 80
1288 62 195
1289 62 196
1290 62 197
1291 62 199
1292 62 200
1293 62 202
1294 62 203
1295 62 204
1296 62 205
1297 62 207
1298 62 208
1299 62 210
1300 62 211
1301 62 212
1302 62 213
1303 62 215
1304 62 216
1305 62 218
1306 62 219
1307 62 220
1308 62 221
1309 62 222
1310 62 223
1311 62 224
1312 62 479
1313 62 480
1314 62 481
1315 62 483
1316 62 484
1317 62 486
1318 62 487
1319 62 488
1320 62 489
1321 62 491
1322 62 492
1323 62 494
1324 62 495
1325 62 496
1326 62 497
1327 62 499
1328 62 500
1329 62 502
1330 62 503
1331 62 504
1332 62 505
1333 62 506
1334 62 507
1335 62 508
1336 63 104
1337 63 110
1338 63 113
1339 63 120
1340 63 122
1341 63 125
1342 63 131
1343 63 134
1344 63 141
1345 63 143
1346 63 146
1347 63 152
1348 63 155
1349 63 162
1350 63 164
1351 63 170
1352 63 173
1353 63 176
1354 63 179
1355 63 182
1356 63 188
1357 63 191
1358 63 367
1359 63 370
1360 63 376
1361 63 46
1362 63 54
1363 63 585
1364 63 589
1365 63 595
1366 63 598
1367 63 60
1368 63 601
1369 63 606
1370 63 611
1371 63 617
1372 63 620
1373 63 627
1374 63 629
1375 63 632
1376 63 638
1377 63 641
1378 63 648
1379 63 650
1380 63 657
1381 63 663
1382 63 666
1383 63 669
1384 63 674
1385 63 701
1386 63 727
1387 63 729
1388 63 754
1389 63 83
1390 64 108
1391 64 114
1392 64 129
1393 64 135
1394 64 150
1395 64 156
1396 64 20
1397 64 227
1398 64 23
1399 64 243
1400 64 246
1401 64 258
1402 64 261
1403 64 301
1404 64 304
1405 64 316
1406 64 319
1407 64 331
1408 64 334
1409 64 346
1410 64 349
1411 64 361
1412 64 364
1413 64 412
1414 64 415
1415 64 427
1416 64 430
1417 64 442
1418 64 445
1419 64 45
1420 64 457
1421 64 460
1422 64 472
1423 64 475
1424 64 511
1425 64 527
1426 64 53
1427 64 530
1428 64 542
1429 64 545
1430 64 61
1431 64 615
1432 64 621
1433 64 636
1434 64 642
1435 64 700
1436 64 711
1437 64 717
1438 64 730
1439 64 74
1440 64 761
1441 64 77
1442 64 90
1443 67 0
1444 71 118
1445 71 119
1446 71 129
1447 71 13
1448 71 130
1449 71 132
1450 71 144
1451 71 145
1452 71 146
1453 71 147
1454 71 171
1455 71 172
1456 71 176
1457 71 177
1458 71 180
1459 71 181
1460 71 182
1461 71 187
1462 71 189
1463 71 215
1464 71 216
1465 71 23
1466 71 240
1467 71 241
1468 71 247
1469 71 248
1470 71 25
1471 71 254
1472 71 255
1473 71 269
1474 71 27
1475 71 270
1476 71 28
1477 71 287
1478 71 30
1479 71 31
1480 71 312
1481 71 313
1482 71 337
1483 71 338
1484 71 34
1485 71 344
1486 71 345
1487 71 351
1488 71 352
1489 71 366
1490 71 367
1491 71 381
1492 71 382
1493 71 394
1494 71 409
1495 71 410
1496 71 434
1497 71 435
1498 71 441
1499 71 442
1500 71 448
1501 71 449
1502 71 463
1503 71 464
1504 71 48
1505 71 49
1506 71 491
1507 71 493
1508 71 507
1509 71 508
1510 71 53
1511 71 532
1512 71 533
1513 71 539
1514 71 540
1515 71 546
1516 71 547
1517 71 56
1518 71 561
1519 71 562
1520 71 57
1521 71 576
1522 71 577
1523 71 580
1524 71 581
1525 71 606
1526 71 607
1527 71 61
1528 71 617
1529 71 618
1530 71 62
1531 71 620
1532 71 632
1533 71 633
1534 71 634
1535 71 635
1536 71 65
1537 71 659
1538 71 66
1539 71 660
1540 71 664
1541 71 665
1542 71 668
1543 71 669
1544 71 67
1545 71 670
1546 71 675
1547 71 677
1548 71 686
1549 71 687
1550 71 692
1551 71 693
1552 71 697
1553 71 698
1554 71 701
1555 71 702
1556 71 703
1557 71 708
1558 71 710
1559 71 713
1560 71 714
1561 71 718
1562 71 719
1563 71 72
1564 71 722
1565 71 723
1566 71 724
1567 71 729
1568 71 731
1569 71 734
1570 71 735
1571 71 739
1572 71 74
1573 71 740
1574 71 743
1575 71 744
1576 71 745
1577 71 750
1578 71 752
1579 71 756
1580 71 757
1581 71 77
1582 71 770
1583 71 772
1584 71 78
1585 71 82
1586 71 83
1587 71 86
1588 71 87
1589 71 88
1590 71 9
1591 71 93
1592 71 95
1593 72 133
1594 72 174
1595 72 217
1596 72 271
1597 72 314
1598 72 368
1599 72 383
1600 72 411
1601 72 465
1602 72 50
1603 72 509
1604 72 563
1605 72 578
1606 72 59
1607 72 621
1608 72 662
1609 72 695
1610 72 716
1611 72 737
1612 72 80
1613 74 13
1614 74 15
1615 74 18
1616 74 194
1617 74 196
1618 74 199
1619 74 201
1620 74 292
1621 74 295
1622 74 299
1623 74 34
1624 74 36
1625 74 386
1626 74 389
1627 74 391
1628 74 470
1629 74 475
1630 74 481
1631 74 485
1632 74 6
1633 74 681
1634 74 685
1635 74 761
1636 74 765
1637 77 467
1638 78 163
1639 78 478
1640 78 481
1641 78 485
1642 78 651
1643 79 12
1644 79 33
1645 79 479
1646 79 483
1647 80 12
1648 80 16
1649 80 163
1650 80 19
1651 80 195
1652 80 198
1653 80 204
1654 80 219
1655 80 258
1656 80 277
1657 80 290
1658 80 293
1659 80 301
1660 80 316
1661 80 33
1662 80 355
1663 80 37
1664 80 370
1665 80 385
1666 80 388
1667 80 398
1668 80 413
1669 80 452
1670 80 487
1671 80 496
1672 80 5
1673 80 511
1674 80 550
1675 80 565
1676 80 585
1677 80 651
1678 80 679
1679 80 759
1680 80 766
1681 80 97
1682 81 191
1683 81 682
1684 81 762
1685 84 13
1686 84 15
1687 84 194
1688 84 196
1689 84 199
1690 84 201
1691 84 34
1692 84 36
1693 84 386
1694 84 389
1695 84 391
1696 84 470
1697 84 475
1698 84 480
1699 84 484
1700 84 6
1701 84 685
1702 84 765
1703 86 118
1704 86 144
1705 86 146
1706 86 171
1707 86 177
1708 86 180
1709 86 187
1710 86 189
1711 86 240
1712 86 248
1713 86 254
1714 86 28
1715 86 31
1716 86 337
1717 86 345
1718 86 351
1719 86 394
1720 86 434
1721 86 442
1722 86 448
1723 86 53
1724 86 532
1725 86 540
1726 86 546
1727 86 56
1728 86 581
1729 86 606
1730 86 62
1731 86 632
1732 86 634
1733 86 65
1734 86 659
1735 86 665
1736 86 668
1737 86 675
1738 86 677
1739 86 687
1740 86 692
1741 86 698
1742 86 701
1743 86 708
1744 86 710
1745 86 713
1746 86 719
1747 86 72
1748 86 722
1749 86 729
1750 86 731
1751 86 734
1752 86 74
1753 86 740
1754 86 743
1755 86 750
1756 86 752
1757 86 757
1758 86 77
1759 86 83
1760 86 86
1761 86 9
1762 86 93
1763 86 95
1764 87 117
1765 87 128
1766 87 134
1767 87 147
1768 87 175
1769 87 181
1770 87 214
1771 87 217
1772 87 239
1773 87 247
1774 87 255
1775 87 268
1776 87 271
1777 87 287
1778 87 311
1779 87 314
1780 87 336
1781 87 344
1782 87 352
1783 87 365
1784 87 368
1785 87 380
1786 87 383
1787 87 408
1788 87 411
1789 87 433
1790 87 441
1791 87 449
1792 87 462
1793 87 465
1794 87 47
1795 87 50
1796 87 506
1797 87 509
1798 87 531
1799 87 539
1800 87 547
1801 87 560
1802 87 563
1803 87 575
1804 87 578
1805 87 60
1806 87 605
1807 87 616
1808 87 622
1809 87 635
1810 87 66
1811 87 663
1812 87 669
1813 87 696
1814 87 702
1815 87 717
1816 87 723
1817 87 738
1818 87 744
1819 87 81
1820 87 87
1821 94 101
1822 94 104
1823 94 105
1824 94 109
1825 94 11
1826 94 110
1827 94 113
1828 94 114
1829 94 115
1830 94 120
1831 94 122
1832 94 125
1833 94 126
1834 94 130
1835 94 131
1836 94 134
1837 94 135
1838 94 136
1839 94 141
1840 94 143
1841 94 146
1842 94 147
1843 94 151
1844 94 152
1845 94 155
1846 94 156
1847 94 157
1848 94 162
1849 94 164
1850 94 169
1851 94 170
1852 94 178
1853 94 185
1854 94 199
1855 94 200
1856 94 214
1857 94 215
1858 94 22
1859 94 229
1860 94 230
1861 94 244
1862 94 245
1863 94 259
1864 94 260
1865 94 274
1866 94 275
1867 94 302
1868 94 304
1869 94 321
1870 94 322
1871 94 336
1872 94 337
1873 94 351
1874 94 352
1875 94 366
1876 94 367
1877 94 38
1878 94 404
1879 94 405
1880 94 419
1881 94 420
1882 94 434
1883 94 435
1884 94 449
1885 94 450
1886 94 464
1887 94 465
1888 94 482
1889 94 501
1890 94 502
1891 94 516
1892 94 517
1893 94 531
1894 94 532
1895 94 546
1896 94 547
1897 94 561
1898 94 562
1899 94 573
1900 94 575
1901 94 586
1902 94 59
1903 94 591
1904 94 592
1905 94 596
1906 94 597
1907 94 600
1908 94 601
1909 94 602
1910 94 607
1911 94 609
1912 94 612
1913 94 613
1914 94 617
1915 94 618
1916 94 621
1917 94 622
1918 94 623
1919 94 628
1920 94 63
1921 94 630
1922 94 633
1923 94 634
1924 94 638
1925 94 639
1926 94 642
1927 94 643
1928 94 644
1929 94 649
1930 94 651
1931 94 654
1932 94 655
1933 94 659
1934 94 660
1935 94 663
1936 94 664
1937 94 665
1938 94 67
1939 94 670
1940 94 672
1941 94 675
1942 94 68
1943 94 680
1944 94 681
1945 94 686
1946 94 687
1947 94 691
1948 94 692
1949 94 695
1950 94 696
1951 94 697
1952 94 702
1953 94 704
1954 94 707
1955 94 708
1956 94 712
1957 94 713
1958 94 716
1959 94 717
1960 94 718
1961 94 723
1962 94 725
1963 94 728
1964 94 729
1965 94 733
1966 94 734
1967 94 737
1968 94 738
1969 94 739
1970 94 744
1971 94 746
1972 94 749
1973 94 750
1974 94 754
1975 94 755
1976 94 758
1977 94 759
1978 94 76
1979 94 760
1980 94 765
1981 94 767
1982 94 77
1983 94 79
1984 94 80
1985 94 83
1986 94 84
1987 94 88
1988 94 89
1989 94 9
1990 94 92
1991 94 93
1992 94 94
1993 94 99
1994 95 107
1995 95 128
1996 95 149
1997 95 201
1998 95 216
1999 95 231
2000 95 246
2001 95 261
2002 95 276
2003 95 323
2004 95 338
2005 95 353
2006 95 368
2007 95 406
2008 95 421
2009 95 436
2010 95 451
2011 95 466
2012 95 503
2013 95 518
2014 95 533
2015 95 548
2016 95 563
2017 95 594
2018 95 615
2019 95 636
2020 95 657
2021 95 689
2022 95 710
2023 95 731
2024 95 752
2025 95 86
2026 97 14
2027 97 168
2028 97 17
2029 97 173
2030 97 175
2031 97 19
2032 97 281
2033 97 286
2034 97 292
2035 97 296
2036 97 307
2037 97 372
2038 97 376
2039 97 380
2040 97 384
2041 97 390
2042 97 45
2043 97 487
2044 97 53
2045 97 568
2046 97 578
2047 97 581
2048 97 583
2049 97 59
2050 97 61
2051 97 63
2052 97 65
2053 97 679
2054 97 73
2055 97 772
2056 100 278
2057 100 41
2058 100 47
2059 100 55
2060 101 289
2061 101 292
2062 101 296
2063 101 41
2064 101 47
2065 101 55
2066 102 290
2067 102 294
2068 102 41
2069 102 47
2070 102 55
2071 102 58
2072 102 62
2073 103 13
2074 103 16
2075 103 166
2076 103 172
2077 103 188
2078 103 203
2079 103 218
2080 103 233
2081 103 248
2082 103 263
2083 103 28
2084 103 298
2085 103 306
2086 103 310
2087 103 325
2088 103 340
2089 103 355
2090 103 370
2091 103 393
2092 103 408
2093 103 41
2094 103 423
2095 103 438
2096 103 453
2097 103 472
2098 103 48
2099 103 485
2100 103 490
2101 103 5
2102 103 505
2103 103 520
2104 103 535
2105 103 550
2106 103 56
2107 103 569
2108 103 577
2109 103 58
2110 103 580
2111 103 62
2112 103 677
2113 104 377
2114 104 381
2115 104 41
2116 104 565
2117 104 70
2118 104 769
2119 107 14
2120 107 17
2121 107 173
2122 107 175
2123 107 19
2124 107 281
2125 107 286
2126 107 291
2127 107 295
2128 107 307
2129 107 380
2130 107 384
2131 107 390
2132 107 568
2133 107 578
2134 107 581
2135 107 583
2136 107 59
2137 107 61
2138 107 63
2139 107 65
2140 107 73
2141 107 772
2142 109 101
2143 109 104
2144 109 110
2145 109 113
2146 109 120
2147 109 122
2148 109 125
2149 109 131
2150 109 134
2151 109 141
2152 109 143
2153 109 146
2154 109 152
2155 109 155
2156 109 162
2157 109 164
2158 109 170
2159 109 178
2160 109 22
2161 109 586
2162 109 591
2163 109 597
2164 109 600
2165 109 607
2166 109 609
2167 109 612
2168 109 618
2169 109 621
2170 109 628
2171 109 630
2172 109 633
2173 109 639
2174 109 642
2175 109 649
2176 109 651
2177 109 654
2178 109 660
2179 109 663
2180 109 670
2181 109 672
2182 109 675
2183 109 68
2184 109 681
2185 109 686
2186 109 692
2187 109 695
2188 109 702
2189 109 704
2190 109 707
2191 109 713
2192 109 716
2193 109 723
2194 109 725
2195 109 728
2196 109 734
2197 109 737
2198 109 744
2199 109 746
2200 109 749
2201 109 755
2202 109 758
2203 109 765
2204 109 767
2205 109 77
2206 109 80
2207 109 83
2208 109 89
2209 109 92
2210 109 99
2211 110 108
2212 110 114
2213 110 129
2214 110 135
2215 110 150
2216 110 156
2217 110 185
2218 110 198
2219 110 201
2220 110 213
2221 110 216
2222 110 228
2223 110 231
2224 110 243
2225 110 246
2226 110 258
2227 110 261
2228 110 273
2229 110 276
2230 110 320
2231 110 323
2232 110 335
2233 110 338
2234 110 350
2235 110 353
2236 110 365
2237 110 368
2238 110 38
2239 110 403
2240 110 406
2241 110 418
2242 110 42
2243 110 421
2244 110 43
2245 110 433
2246 110 436
2247 110 448
2248 110 45
2249 110 451
2250 110 46
2251 110 463
2252 110 466
2253 110 482
2254 110 50
2255 110 500
2256 110 503
2257 110 51
2258 110 515
2259 110 518
2260 110 53
2261 110 530
2262 110 533
2263 110 545
2264 110 548
2265 110 55
2266 110 560
2267 110 563
2268 110 595
2269 110 601
2270 110 616
2271 110 622
2272 110 637
2273 110 643
2274 110 658
2275 110 664
2276 110 690
2277 110 696
2278 110 711
2279 110 717
2280 110 732
2281 110 738
2282 110 753
2283 110 759
2284 110 87
2285 110 93
2286 134 373
2287 134 374
2288 134 375
2289 134 376
2290 134 377
2291 134 378
2292 134 379
2293 134 380
2294 134 381
2295 134 382
2296 134 383
2297 134 384
2298 134 385
2299 134 386
2300 134 387
2301 134 388
2302 134 389
2303 134 390
2304 134 391
2305 134 392
2306 134 393
2307 134 394
2308 134 395
2309 134 396
2310 134 397
2311 134 398
2312 134 399
2313 134 400
2314 134 401
2315 134 402
2316 134 403
2317 134 404
2318 134 405
2319 134 406
2320 134 479
2321 134 481
2322 134 741
2323 134 759
EOF
